c A SAT instance generated from a 5-CNF formula that had 20 clauses and 20 variables
p cnf 20 20
-9 -18 5 -7 -8 0
-14 -5 -18 -20 13 0
-20 -1 -9 6 -19 0
7 -3 -17 14 -15 0
6 -19 -11 -2 4 0
8 -11 15 2 1 0
-20 -2 16 11 -10 0
-12 9 18 10 -19 0
-11 -13 4 7 20 0
-3 18 -8 2 16 0
10 20 -2 13 6 0
18 3 15 -19 -10 0
-4 -7 18 3 12 0
16 11 9 -4 8 0
7 6 -18 2 19 0
-12 -18 10 16 -6 0
8 11 19 -2 3 0
18 -1 5 -19 2 0
-7 1 14 -15 -5 0
19 12 -16 -13 8 0
